\ Model (null)_copy
\ LP format - for model browsing. Use MPS format to capture full model detail.
Minimize
 
Subject To
 c1_2: y2_1 + y2_3 + y2_4 + y2_5 + y2_6 >= 1
 c5_2: y0_2 + y1_2 - y2_1 - y2_3 - y2_4 - y2_5 - y2_6 + y3_2 + y4_2 + y5_2
   = 0
 c5_4: y0_4 + y1_4 + y2_4 + y3_4 - y4_1 - y4_2 - y4_3 - y4_5 - y4_6 + y5_4
   = 0
 c5_5: y0_5 + y1_5 + y2_5 + y3_5 + y4_5 - y5_1 - y5_2 - y5_3 - y5_4 - y5_6
   = 0
 c15_026: 1236 x0_2 + 1236 x2_6 - 1236 y0_2 - 1236 y2_6 >= -2470
 c15_421: 1236 x2_1 + 1236 x4_2 - 1236 y2_1 - 1236 y4_2 >= -2470
 c15_423: 1236 x2_3 + 1236 x4_2 - 1236 y2_3 - 1236 y4_2 >= -2470
 c16_052: - 1236 y0_5 - 1236 y5_2 >= -2470
 c16_152: - 1236 y1_5 - 1236 y5_2 >= -2470
 c16_212: - 1236 y1_2 - 1236 y2_1 >= -2470
 c16_246: - 1236 y2_4 - 1236 y4_6 >= -2470
 c16_253: - 1236 y2_5 - 1236 y5_3 >= -2470
 c16_254: - 1236 y2_5 - 1236 y5_4 >= -2470
 c16_256: - 1236 y2_5 - 1236 y5_6 >= -2470
 c16_452: - 1236 y4_5 - 1236 y5_2 >= -2470
 c17_123: 1236 x2_3 - 1236 y1_2 - 1236 y2_3 >= -2470
 c17_126: 1236 x2_6 - 1236 y1_2 - 1236 y2_6 >= -2470
 c17_321: 1236 x2_1 - 1236 y2_1 - 1236 y3_2 >= -2470
 c17_323: 1236 x2_3 - 1236 y2_3 - 1236 y3_2 >= -2470
 c17_326: 1236 x2_6 - 1236 y2_6 - 1236 y3_2 >= -2470
 c17_424: 1236 x2_4 - 1236 y2_4 - 1236 y4_2 >= -2470
 c17_525: 1236 x2_5 - 1236 y2_5 - 1236 y5_2 >= -2470
 c18_021: 1236 x0_2 - 1236 y0_2 - 1236 y2_1 >= -2470
 c18_023: 1236 x0_2 - 1236 y0_2 - 1236 y2_3 >= -2470
 c18_235: 1236 x2_3 - 1236 y2_3 - 1236 y3_5 >= -2470
 c18_241: 1236 x2_4 - 1236 y2_4 - 1236 y4_1 >= -2470
 c18_243: 1236 x2_4 - 1236 y2_4 - 1236 y4_3 >= -2470
 c18_245: 1236 x2_4 - 1236 y2_4 - 1236 y4_5 >= -2470
 c18_251: 1236 x2_5 - 1236 y2_5 - 1236 y5_1 >= -2470
 c18_426: 1236 x4_2 - 1236 y2_6 - 1236 y4_2 >= -2470
 c18_521: 1236 x5_2 - 1236 y2_1 - 1236 y5_2 >= -2470
 c18_526: 1236 x5_2 - 1236 y2_6 - 1236 y5_2 >= -2470
Bounds
 x0_2 = 0
 x2_1 = 0
 x2_3 = 0
 x2_4 = 0
 x2_5 = 0
 x2_6 = 0
 x4_2 = 0
 x5_2 = 0
Binaries
 x0_2 x2_1 x2_3 x2_4 x2_5 x2_6 x4_2 x5_2 y0_2 y0_4 y0_5 y1_2 y1_4 y1_5 y2_1
 y2_3 y2_4 y2_5 y2_6 y3_2 y3_4 y3_5 y4_1 y4_2 y4_3 y4_5 y4_6 y5_1 y5_2 y5_3
 y5_4 y5_6
End
